
Gurobi 8.1.0 (mac64, Python) logging started Wed Jan 16 15:43:27 2019

Academic license - for non-commercial use only
Optimize a model with 55540 rows, 18720 columns and 132804 nonzeros
Model has 9243 quadratic objective terms
Variable types: 18252 continuous, 468 integer (468 binary)
Coefficient statistics:
  Matrix range     [1e+00, 8e+01]
  Objective range  [5e+15, 1e+16]
  QObjective range [1e+14, 1e+15]
  Bounds range     [1e+00, 1e+00]
  RHS range        [1e+00, 3e+00]
Warning: Model contains large objective coefficients
Warning: Model contains large quadratic objective coefficients
         Consider reformulating model or setting NumericFocus parameter
         to avoid numerical issues.
Presolve removed 53548 rows and 17040 columns
Presolve time: 0.08s
Presolved: 11001 rows, 10689 columns, 35931 nonzeros
Variable types: 1212 continuous, 9477 integer (9477 binary)
Found heuristic solution: objective 6.030241e+17
Found heuristic solution: objective 5.964588e+17
Warning: switch to quad precision

Root relaxation: objective -3.114180e+17, 10349 iterations, 1.49 seconds

    Nodes    |    Current Node    |     Objective Bounds      |     Work
 Expl Unexpl |  Obj  Depth IntInf | Incumbent    BestBd   Gap | It/Node Time

     0     0 -3.114e+17    0  158 5.9646e+17 -3.114e+17   152%     -    2s
     0     0 -3.114e+17    0  210 5.9646e+17 -3.114e+17   152%     -    2s
     0     0 -3.113e+17    0  161 5.9646e+17 -3.113e+17   152%     -    3s
     0     0 -3.111e+17    0  161 5.9646e+17 -3.111e+17   152%     -    3s
     0     0 -3.111e+17    0  161 5.9646e+17 -3.111e+17   152%     -    3s
H    0     0                    5.814070e+17 -3.111e+17   154%     -    3s
     0     2 -3.111e+17    0  161 5.8141e+17 -3.111e+17   154%     -    4s
     5     8 -2.945e+17    2  235 5.8141e+17 -3.092e+17   153%   331    5s
H   27    28                    5.100567e+17 -2.999e+17   159%   232    9s
    33    37 -2.830e+17    8  223 5.1006e+17 -2.999e+17   159%   234   10s
H   38    38                    4.946030e+17 -2.999e+17   161%   232   11s
    50    49 -2.662e+17   12  218 4.9460e+17 -2.999e+17   161%   246   15s
    66    65 -2.399e+17   16  211 4.9460e+17 -2.999e+17   161%   263   21s
    77    79 -2.193e+17   19  150 4.9460e+17 -2.999e+17   161%   255   25s
    92    95 -1.931e+17   22  167 4.9460e+17 -2.999e+17   161%   257   30s
H  117   118                    3.079009e+17 -2.999e+17   197%   246   33s
   120   120 -1.341e+17   28  212 3.0790e+17 -2.999e+17   197%   247   35s
H  146   147                    2.031059e+17 -2.999e+17   248%   230   38s
   152   154 -8.936e+16   34  282 2.0311e+17 -2.999e+17   248%   230   40s
H  178   180                    1.777400e+17 -2.999e+17   269%   221   43s
   192   196 -4.885e+16   43  401 1.7774e+17 -2.999e+17   269%   217   46s

Cutting planes:
  Gomory: 3
  Implied bound: 2
  MIR: 66
  Flow cover: 16
  Zero half: 1750

Explored 207 nodes (60251 simplex iterations) in 46.84 seconds
Thread count was 4 (of 4 available processors)

Solution count 8: 1.7774e+17 2.03106e+17 3.07901e+17 ... 6.03024e+17

Solve interrupted
Best objective 1.777399859223e+17, best bound -2.998629093183e+17, gap 268.7088%

Gurobi 8.1.0 (mac64, Python) logging started Wed Jan 16 15:47:00 2019

Academic license - for non-commercial use only
Optimize a model with 111001 rows, 37440 columns and 265608 nonzeros
Model has 18486 quadratic objective terms
Variable types: 36504 continuous, 936 integer (936 binary)
Coefficient statistics:
  Matrix range     [1e+00, 7e+01]
  Objective range  [2e+15, 6e+15]
  QObjective range [1e+14, 1e+15]
  Bounds range     [1e+00, 1e+00]
  RHS range        [1e+00, 6e+00]
Warning: Model contains large objective coefficients
Warning: Model contains large quadratic objective coefficients
         Consider reformulating model or setting NumericFocus parameter
         to avoid numerical issues.
Presolve removed 107095 rows and 34080 columns
Presolve time: 0.20s
Presolved: 21924 rows, 21378 columns, 71862 nonzeros
Variable types: 2424 continuous, 18954 integer (18954 binary)

Root relaxation: objective -1.492442e+17, 9697 iterations, 0.74 seconds

    Nodes    |    Current Node    |     Objective Bounds      |     Work
 Expl Unexpl |  Obj  Depth IntInf | Incumbent    BestBd   Gap | It/Node Time

     0     0 -1.492e+17    0  152          - -1.492e+17      -     -    4s
H    0     0                    6.951956e+17 -1.492e+17   121%     -    4s
H    0     0                    6.868947e+17 -1.492e+17   122%     -    4s
     0     0 -1.492e+17    0  256 6.8689e+17 -1.492e+17   122%     -    4s
     0     0 -1.492e+17    0  227 6.8689e+17 -1.492e+17   122%     -    5s
     0     0 -1.492e+17    0  229 6.8689e+17 -1.492e+17   122%     -    7s
     0     0 -1.492e+17    0  220 6.8689e+17 -1.492e+17   122%     -    7s
     0     0 -1.492e+17    0  213 6.8689e+17 -1.492e+17   122%     -    9s
     0     0 -1.492e+17    0  182 6.8689e+17 -1.492e+17   122%     -   12s
     0     2 -1.492e+17    0  226 6.8689e+17 -1.492e+17   122%     -   23s
     1     4 -1.488e+17    1  212 6.8689e+17 -1.492e+17   122% 12675   33s
     7    10 -1.482e+17    3  176 6.8689e+17 -1.492e+17   122%  4936   35s
    31    32 -1.465e+17    8  193 6.8689e+17 -1.488e+17   122%  1509   40s
    71    75 -1.323e+17   19  241 6.8689e+17 -1.488e+17   122%   823   45s
   102   102 -1.385e+17   29  195 6.8689e+17 -1.488e+17   122%   655   50s
   140   143 -1.323e+17   40  194 6.8689e+17 -1.488e+17   122%   557   56s
   156   159 -1.283e+17   46  183 6.8689e+17 -1.488e+17   122%   536   60s
   194   195 -1.193e+17   56  197 6.8689e+17 -1.488e+17   122%   492   65s
   220   221 -1.099e+17   63  214 6.8689e+17 -1.488e+17   122%   480   71s
   245   246 -1.023e+17   69  211 6.8689e+17 -1.488e+17   122%   455   75s
   283   284 -9.193e+16   78  224 6.8689e+17 -1.488e+17   122%   426   81s
H  312   312                    5.954334e+17 -1.488e+17   125%   411   85s
H  349   343                    5.448495e+17 -1.488e+17   127%   389   89s
   351   348 -4.835e+16  104  400 5.4485e+17 -1.488e+17   127%   390   92s
   392   371 -3.852e+16  113  619 5.4485e+17 -1.488e+17   127%   369   98s
H  397   371                    5.233179e+17 -1.488e+17   128%   365   98s
   432   389 -1.377e+17    9  238 5.2332e+17 -1.488e+17   128%   349  100s
   517   467 -1.210e+17   40  277 5.2332e+17 -1.488e+17   128%   328  106s
   581   531 -1.143e+17   59  283 5.2332e+17 -1.488e+17   128%   314  112s
   626   577 -1.018e+17   71  322 5.2332e+17 -1.488e+17   128%   306  116s
   718   668 -9.704e+16   94  280 5.2332e+17 -1.488e+17   128%   291  123s
   764   713 -7.023e+16   91 9241 5.2332e+17 -1.488e+17   128%   284  156s
   768   716 -1.238e+17   43  235 5.2332e+17 -1.488e+17   128%   282  160s
   769   716 -1.045e+17   64  270 5.2332e+17 -1.488e+17   128%   282  166s
   771   718 -1.224e+17   37  263 5.2332e+17 -1.488e+17   128%   281  171s
   772   721 -1.488e+17   14  194 5.2332e+17 -1.488e+17   128%   341  182s
   776   724 -1.488e+17   16  195 5.2332e+17 -1.488e+17   128%   349  186s
   782   726 -1.475e+17   18  188 5.2332e+17 -1.488e+17   128%   350  190s
   810   743 -1.360e+17   25  218 5.2332e+17 -1.488e+17   128%   350  195s
   821   752 -1.353e+17   29  424 5.2332e+17 -1.488e+17   128%   350  201s
H  826   719                    4.644909e+17 -1.488e+17   132%   349  201s
   858   740 -1.331e+17   35  228 4.6449e+17 -1.488e+17   132%   348  206s
   894   765 -1.296e+17   44  257 4.6449e+17 -1.488e+17   132%   342  210s
   954   804 -1.239e+17   59  276 4.6449e+17 -1.488e+17   132%   332  215s
   997   833 -1.200e+17   70  306 4.6449e+17 -1.488e+17   132%   327  221s
  1039   858 -1.146e+17   80  307 4.6449e+17 -1.488e+17   132%   322  225s
  1092   894 -1.024e+17   96  326 4.6449e+17 -1.488e+17   132%   315  230s
  1144   931 -8.836e+16  109  351 4.6449e+17 -1.488e+17   132%   310  236s
H 1165   901                    4.485158e+17 -1.488e+17   133%   307  238s
  1192   908 -7.634e+16  125  304 4.4852e+17 -1.488e+17   133%   304  240s
H 1289   906                    4.310569e+17 -1.488e+17   135%   299  245s
  1375   955 -1.020e+17   59  349 4.3106e+17 -1.488e+17   135%   290  250s
H 1379   923                    4.310569e+17 -1.488e+17   135%   290  250s
  1438   968 -1.233e+17   30  326 4.3106e+17 -1.488e+17   135%   286  255s
H 1464   931                    4.173292e+17 -1.488e+17   136%   283  255s
  1512   968 -1.160e+17   61  298 4.1733e+17 -1.488e+17   136%   281  260s
  1579  1014 -9.817e+16   79  356 4.1733e+17 -1.488e+17   136%   280  266s
  1641  1047 -8.678e+16   91  340 4.1733e+17 -1.488e+17   136%   274  272s
H 1694  1032                    4.173292e+17 -1.488e+17   136%   271  272s
  1695  1061 -8.731e+16  100  339 4.1733e+17 -1.488e+17   136%   271  280s
  1841  1148 infeasible  119      4.1733e+17 -1.488e+17   136%   265  285s
  1995  1231 -1.005e+17   50  459 4.1733e+17 -1.488e+17   136%   266  292s
  2067  1255 -1.051e+17   66  402 4.1733e+17 -1.488e+17   136%   265  296s
  2111  1283 -1.041e+17   70  409 4.1733e+17 -1.488e+17   136%   266  303s
  2149  1306 -6.837e+16   80  537 4.1733e+17 -1.488e+17   136%   269  306s
  2373  1441 -1.249e+17   49  311 4.1733e+17 -1.488e+17   136%   263  313s
H 2465  1518                    3.203062e+17 -1.488e+17   146%   263  334s
  2483  1541 -1.064e+17   91  468 3.2031e+17 -1.488e+17   146%   263  338s
  2548  1608 -9.733e+16  101  444 3.2031e+17 -1.488e+17   146%   263  342s
  2643  1707 -8.858e+16  114  403 3.2031e+17 -1.488e+17   146%   262  347s
  2766  1779 -7.060e+16  135  433 3.2031e+17 -1.488e+17   146%   261  351s
  2902  1891 -1.483e+17   17  210 3.2031e+17 -1.488e+17   146%   260  355s
  3163  2133 infeasible   88      3.2031e+17 -1.486e+17   146%   258  363s
  3309  2244 -1.270e+17   23  320 3.2031e+17 -1.486e+17   146%   257  369s
  3514  2422 -8.875e+16   74  360 3.2031e+17 -1.486e+17   146%   253  374s
  3780  2634 -1.040e+17   92  308 3.2031e+17 -1.486e+17   146%   245  379s
  4034  2846 4.1167e+16  180  423 3.2031e+17 -1.486e+17   146%   237  385s
H 4265  3023                    2.916464e+17 -1.486e+17   151%   237  397s
  4267  3021 -1.144e+17   47  445 2.9165e+17 -1.486e+17   151%   237  402s
  4494  3200 -1.372e+17   21  272 2.9165e+17 -1.484e+17   151%   235  408s
  4678  3371 -1.350e+17   41  288 2.9165e+17 -1.484e+17   151%   236  415s
* 4861  3371             222    2.465450e+17 -1.484e+17   160%   229  415s
  5016  3655 -1.386e+17   32  236 2.4654e+17 -1.484e+17   160%   229  421s
  5383  3972 -1.068e+17   38  413 2.4654e+17 -1.484e+17   160%   227  426s
  5836  4358 -1.109e+17   88  315 2.4654e+17 -1.484e+17   160%   219  437s
H 5907  4351                    1.809208e+17 -1.484e+17   182%   219  437s
H 5980  4463                    1.655406e+17 -1.484e+17   190%   218  445s
  6296  4732 infeasible  129      1.6554e+17 -1.483e+17   190%   216  452s
H 6539  4929                    1.612892e+17 -1.483e+17   192%   215  462s
  6683  5048 -1.472e+17   22  172 1.6129e+17 -1.483e+17   192%   214  469s
  6944  5272 -1.131e+17   87  456 1.6129e+17 -1.483e+17   192%   214  476s
  7092  5392 -1.291e+17   36  310 1.6129e+17 -1.483e+17   192%   212  484s
  7438  5671 -1.023e+17   58  414 1.6129e+17 -1.483e+17   192%   212  494s
H 7639  5669                    1.517760e+17 -1.483e+17   198%   210  494s
H 7802  5855                    1.306401e+17 -1.483e+17   214%   208  494s
  7803  6003 -8.005e+16   85  453 1.3064e+17 -1.483e+17   214%   209  505s
  7945  6103 infeasible  115      1.3064e+17 -1.483e+17   214%   208  513s
H 8112  6100                    1.257028e+17 -1.483e+17   218%   206  513s
  8202  6317 2.6932e+16  142  323 1.2570e+17 -1.483e+17   218%   206  519s
  8556  6595 -1.366e+17   28  258 1.2570e+17 -1.482e+17   218%   205  527s
  8717  6742 -1.470e+17   22  214 1.2570e+17 -1.482e+17   218%   205  531s
  9034  7023 -1.435e+17   33  229 1.2570e+17 -1.481e+17   218%   204  537s
  9469  7422 -1.207e+17   54  337 1.2570e+17 -1.481e+17   218%   200  545s
  9996  7866 -1.181e+17   58  328 1.2570e+17 -1.480e+17   218%   199  555s
 10409  8233 infeasible  202      1.2570e+17 -1.480e+17   218%   195  575s
 10531  8326 infeasible   80      1.2570e+17 -1.480e+17   218%   195  580s
 10966  8692 -5.696e+16  127  361 1.2570e+17 -1.480e+17   218%   192  585s
 11539  9197 -1.182e+17   72  308 1.2570e+17 -1.480e+17   218%   189  593s
 11742  9366 -1.467e+17   23  195 1.2570e+17 -1.480e+17   218%   187  606s
H11805  9337                    9.874443e+16 -1.480e+17   250%   187  606s
H11870  9447                    9.428437e+16 -1.480e+17   257%   188  611s
 12104  9634 -1.240e+17   85  270 9.4284e+16 -1.480e+17   257%   187  616s
H12250  9724                    9.045162e+16 -1.480e+17   264%   187  623s
 12359  9825 -1.338e+17   35  247 9.0452e+16 -1.480e+17   264%   186  627s
 12774 10174 -1.845e+16  159  495 9.0452e+16 -1.480e+17   264%   184  631s
 13059 10438 -1.473e+17   21  173 9.0452e+16 -1.480e+17   264%   182  639s
 13316 10675 -7.564e+16  123  380 9.0452e+16 -1.480e+17   264%   181  645s
 13601 10888 1.0905e+16  185  403 9.0452e+16 -1.480e+17   264%   180  650s
 13829 11099 -1.136e+17   77  326 9.0452e+16 -1.480e+17   264%   181  659s
 13845 11107 -1.127e+17   81  362 9.0452e+16 -1.480e+17   264%   181  664s
 14184 11344 -1.160e+17   44  382 9.0452e+16 -1.480e+17   264%   180  669s
 14287 11440 -7.275e+16   82  529 9.0452e+16 -1.480e+17   264%   181  677s
 14558 11635 -8.208e+16   59  603 9.0452e+16 -1.480e+17   264%   181  683s

Cutting planes:
  Cover: 4
  MIR: 49
  Flow cover: 69
  Zero half: 216

Explored 14693 nodes (2699544 simplex iterations) in 789.92 seconds
Thread count was 4 (of 4 available processors)

Solution count 10: 9.04516e+16 9.42844e+16 9.87444e+16 ... 2.46545e+17

Solve interrupted
Best objective 9.045162077179e+16, best bound -1.479559727022e+17, gap 263.5747%

Gurobi 8.1.0 (mac64, Python) logging started Thu Jan 17 00:23:11 2019

Academic license - for non-commercial use only

Gurobi 8.1.0 (mac64, Python) logging started Thu Jan 17 00:23:22 2019

Academic license - for non-commercial use only
Optimize a model with 111001 rows, 37440 columns and 265608 nonzeros
Model has 18486 quadratic objective terms
Variable types: 36504 continuous, 936 integer (936 binary)
Coefficient statistics:
  Matrix range     [1e+00, 7e+01]
  Objective range  [2e+15, 6e+15]
  QObjective range [1e+14, 1e+15]
  Bounds range     [1e+00, 1e+00]
  RHS range        [1e+00, 6e+00]
Warning: Model contains large objective coefficients
Warning: Model contains large quadratic objective coefficients
         Consider reformulating model or setting NumericFocus parameter
         to avoid numerical issues.
Presolve removed 107095 rows and 34080 columns
Presolve time: 0.18s
Presolved: 21924 rows, 21378 columns, 71862 nonzeros
Variable types: 2424 continuous, 18954 integer (18954 binary)
Warning: switch to quad precision

Root relaxation: objective -1.492442e+17, 11617 iterations, 0.96 seconds

    Nodes    |    Current Node    |     Objective Bounds      |     Work
 Expl Unexpl |  Obj  Depth IntInf | Incumbent    BestBd   Gap | It/Node Time

     0     0 -1.492e+17    0  152          - -1.492e+17      -     -    2s
H    0     0                    6.819050e+17 -1.492e+17   122%     -    3s
     0     0 -1.492e+17    0  338 6.8190e+17 -1.492e+17   122%     -    4s
     0     0 -1.492e+17    0  235 6.8190e+17 -1.492e+17   122%     -    4s
     0     0 -1.492e+17    0  247 6.8190e+17 -1.492e+17   122%     -    7s
     0     0 -1.492e+17    0  242 6.8190e+17 -1.492e+17   122%     -    7s
     0     0 -1.492e+17    0  277 6.8190e+17 -1.492e+17   122%     -   10s
     0     0 -1.492e+17    0  227 6.8190e+17 -1.492e+17   122%     -   14s
     0     2 -1.492e+17    0  253 6.8190e+17 -1.492e+17   122%     -   27s
     1     4 -1.488e+17    1  207 6.8190e+17 -1.492e+17   122% 11230   32s
    11    15 -1.483e+17    4  171 6.8190e+17 -1.489e+17   122%  2675   35s
    37    39 -1.443e+17   12  165 6.8190e+17 -1.488e+17   122%  1116   40s
    72    71 -1.384e+17   24  160 6.8190e+17 -1.488e+17   122%   704   45s
   116   118 -1.290e+17   39  188 6.8190e+17 -1.488e+17   122%   532   50s
   157   157 -1.147e+17   54  194 6.8190e+17 -1.488e+17   122%   446   57s
H  178   180                    6.400846e+17 -1.488e+17   123%   417   58s
   188   191 infeasible   66      6.4008e+17 -1.488e+17   123%   410   61s
H  206   197                    5.777419e+17 -1.488e+17   126%   390   62s
   226   224 -9.116e+16   79  202 5.7774e+17 -1.488e+17   126%   372   65s

Cutting planes:
  Cover: 3
  MIR: 128
  Flow cover: 22
  Zero half: 199

Explored 259 nodes (134787 simplex iterations) in 66.88 seconds
Thread count was 4 (of 4 available processors)

Solution count 3: 5.77742e+17 6.40085e+17 6.81905e+17 

Solve interrupted
Best objective 5.777419164907e+17, best bound -1.488476176944e+17, gap 125.7637%

Gurobi 8.1.0 (mac64, Python) logging started Thu Jan 17 00:25:14 2019

Academic license - for non-commercial use only
Optimize a model with 111001 rows, 37440 columns and 265608 nonzeros
Model has 18486 quadratic objective terms
Variable types: 36504 continuous, 936 integer (936 binary)
Coefficient statistics:
  Matrix range     [1e+00, 7e+01]
  Objective range  [2e+15, 6e+15]
  QObjective range [1e+14, 1e+15]
  Bounds range     [1e+00, 1e+00]
  RHS range        [1e+00, 6e+00]
Warning: Model contains large objective coefficients
Warning: Model contains large quadratic objective coefficients
         Consider reformulating model or setting NumericFocus parameter
         to avoid numerical issues.
Presolve removed 107095 rows and 34080 columns
Presolve time: 0.31s
Presolved: 21924 rows, 21378 columns, 71862 nonzeros
Variable types: 2424 continuous, 18954 integer (18954 binary)
Warning: switch to quad precision

Root relaxation: objective -1.492442e+17, 11617 iterations, 1.14 seconds

    Nodes    |    Current Node    |     Objective Bounds      |     Work
 Expl Unexpl |  Obj  Depth IntInf | Incumbent    BestBd   Gap | It/Node Time

     0     0 -1.492e+17    0  152          - -1.492e+17      -     -    3s
H    0     0                    6.819050e+17 -1.492e+17   122%     -    3s
     0     0 -1.492e+17    0  338 6.8190e+17 -1.492e+17   122%     -    4s
     0     0 -1.492e+17    0  235 6.8190e+17 -1.492e+17   122%     -    5s
     0     0 -1.492e+17    0  247 6.8190e+17 -1.492e+17   122%     -    8s
     0     0 -1.492e+17    0  242 6.8190e+17 -1.492e+17   122%     -    8s
     0     0 -1.492e+17    0  277 6.8190e+17 -1.492e+17   122%     -   11s
     0     0 -1.492e+17    0  227 6.8190e+17 -1.492e+17   122%     -   15s
     0     2 -1.492e+17    0  253 6.8190e+17 -1.492e+17   122%     -   29s
     1     4 -1.488e+17    1  207 6.8190e+17 -1.492e+17   122% 11230   35s
    25    27 -1.461e+17    8  185 6.8190e+17 -1.488e+17   122%  1446   40s
    49    50 -1.423e+17   16  166 6.8190e+17 -1.488e+17   122%   911   45s
    85    84 -1.358e+17   28  194 6.8190e+17 -1.488e+17   122%   641   50s
   122   124 -1.265e+17   41  191 6.8190e+17 -1.488e+17   122%   522   55s
   157   157 -1.147e+17   54  194 6.8190e+17 -1.488e+17   122%   446   62s
H  178   180                    6.400846e+17 -1.488e+17   123%   417   65s
H  206   197                    5.777419e+17 -1.488e+17   126%   390   69s
   215   210 -9.182e+16   77  195 5.7774e+17 -1.488e+17   126%   381   70s
   259   253 -7.661e+16   94  169 5.7774e+17 -1.488e+17   126%   339   76s
H  260   253                    5.321985e+17 -1.488e+17   128%   337   76s
   287   267 -1.465e+17    8  172 5.3220e+17 -1.488e+17   128%   338   81s
H  289   267                    5.058446e+17 -1.488e+17   129%   336   81s
   351   330 -1.390e+17   39  200 5.0584e+17 -1.488e+17   129%   318   86s
H  387   368                    4.851000e+17 -1.488e+17   131%   304   88s
   419   402 -1.192e+17   65  197 4.8510e+17 -1.488e+17   131%   292   91s
   473   441 -1.073e+17   78  217 4.8510e+17 -1.488e+17   131%   278   95s
   578   544 -7.842e+16   99  222 4.8510e+17 -1.488e+17   131%   261  101s
H  616   576                    4.851000e+17 -1.488e+17   131%   258  103s
   619   579 -7.257e+16  106  289 4.8510e+17 -1.485e+17   131%   259  106s
   707   658 -1.432e+17   16  193 4.8510e+17 -1.485e+17   131%   261  110s
H  721   675                    4.352293e+17 -1.485e+17   134%   266  110s
   723   678 -1.156e+17   62 9241 4.3523e+17 -1.485e+17   134%   266  142s
   727   681 -1.169e+17   68  276 4.3523e+17 -1.485e+17   134%   265  146s

Cutting planes:
  Gomory: 8
  Cover: 16
  Implied bound: 1
  MIR: 173
  Flow cover: 135
  Zero half: 1052

Explored 727 nodes (258193 simplex iterations) in 147.20 seconds
Thread count was 4 (of 4 available processors)

Solution count 8: 4.35229e+17 4.851e+17 4.851e+17 ... 6.81905e+17

Solve interrupted
Best objective 4.352293102408e+17, best bound -1.484617613698e+17, gap 134.1112%

Gurobi 8.1.0 (mac64, Python) logging started Thu Jan 17 00:27:54 2019

Academic license - for non-commercial use only

Gurobi 8.1.0 (mac64, Python) logging started Thu Jan 17 00:28:34 2019

Academic license - for non-commercial use only
Optimize a model with 111001 rows, 37440 columns and 265608 nonzeros
Model has 18486 quadratic objective terms
Variable types: 36504 continuous, 936 integer (936 binary)
Coefficient statistics:
  Matrix range     [1e+00, 7e+01]
  Objective range  [2e+15, 6e+15]
  QObjective range [1e+14, 1e+15]
  Bounds range     [1e+00, 1e+00]
  RHS range        [1e+00, 6e+00]
Warning: Model contains large objective coefficients
Warning: Model contains large quadratic objective coefficients
         Consider reformulating model or setting NumericFocus parameter
         to avoid numerical issues.
Presolve removed 107095 rows and 34080 columns
Presolve time: 0.17s
Presolved: 21924 rows, 21378 columns, 71862 nonzeros
Variable types: 2424 continuous, 18954 integer (18954 binary)

Root relaxation: objective -1.492442e+17, 10533 iterations, 0.87 seconds

    Nodes    |    Current Node    |     Objective Bounds      |     Work
 Expl Unexpl |  Obj  Depth IntInf | Incumbent    BestBd   Gap | It/Node Time

     0     0 -1.492e+17    0  152          - -1.492e+17      -     -    2s
H    0     0                    6.830923e+17 -1.492e+17   122%     -    2s
     0     0 -1.492e+17    0  322 6.8309e+17 -1.492e+17   122%     -    3s
     0     0 -1.492e+17    0  247 6.8309e+17 -1.492e+17   122%     -    4s
     0     0 -1.492e+17    0  266 6.8309e+17 -1.492e+17   122%     -    7s
     0     0 -1.492e+17    0  256 6.8309e+17 -1.492e+17   122%     -    8s
     0     0 -1.492e+17    0  262 6.8309e+17 -1.492e+17   122%     -   11s
     0     0 -1.492e+17    0  243 6.8309e+17 -1.492e+17   122%     -   11s
     0     0 -1.492e+17    0  276 6.8309e+17 -1.492e+17   122%     -   14s
     0     0 -1.492e+17    0  263 6.8309e+17 -1.492e+17   122%     -   23s
     0     2 -1.492e+17    0  165 6.8309e+17 -1.492e+17   122%     -   40s
     1     4 -1.488e+17    1  166 6.8309e+17 -1.492e+17   122%  9929   45s
    16    17 -1.477e+17    5  184 6.8309e+17 -1.488e+17   122%  2090   50s
    58    61 -1.319e+17   17  227 6.8309e+17 -1.488e+17   122%   784   55s
    79    79 -1.383e+17   23  198 6.8309e+17 -1.488e+17   122%   675   60s
   104   105 -1.337e+17   32  172 6.8309e+17 -1.488e+17   122%   580   66s
   127   128 -1.287e+17   38  192 6.8309e+17 -1.488e+17   122%   521   71s
   151   150 -1.193e+17   44  218 6.8309e+17 -1.488e+17   122%   489   76s
   201   201 -1.063e+17   55  231 6.8309e+17 -1.488e+17   122%   417   81s
   260   261 -8.539e+16   71  235 6.8309e+17 -1.488e+17   122%   362   85s
   300   296 -7.294e+16   87  203 6.8309e+17 -1.488e+17   122%   336   90s
   352   341 -6.132e+16  100  192 6.8309e+17 -1.488e+17   122%   311   97s
H  354   342                    5.498472e+17 -1.488e+17   127%   314   97s
   355   335 -5.658e+16  101  224 5.4985e+17 -1.488e+17   127%   316  100s
H  399   363                    3.616519e+17 -1.488e+17   141%   295  103s
   401   367 -4.881e+16  112  240 3.6165e+17 -1.488e+17   141%   298  105s
   425   382 -3.732e+16  122  217 3.6165e+17 -1.488e+17   141%   294  118s
H  438   393                    3.021704e+17 -1.488e+17   149%   289  118s
   439   394 -1.869e+16  129  324 3.0217e+17 -1.488e+17   149%   290  120s
H  492   439                    2.890908e+17 -1.488e+17   151%   283  122s
   516   464 -1.228e+17   29  313 2.8909e+17 -1.488e+17   151%   283  146s
   542   488 -1.302e+17   37  301 2.8909e+17 -1.488e+17   151%   286  150s
   600   548 -1.232e+17   56  229 2.8909e+17 -1.488e+17   151%   285  156s
   662   608 -1.054e+17   75  269 2.8909e+17 -1.488e+17   151%   282  161s
   743   689 -1.362e+17   15 9241 2.8909e+17 -1.488e+17   151%   278  224s
   745   690 -1.409e+17   19  207 2.8909e+17 -1.488e+17   151%   277  225s
   748   692 -1.177e+17   48  296 2.8909e+17 -1.488e+17   151%   276  232s
   749   693 -1.348e+17   21  284 2.8909e+17 -1.488e+17   151%   276  235s
   751   697 -1.488e+17   14  209 2.8909e+17 -1.488e+17   151%   317  260s
   755   700 -1.488e+17   16  211 2.8909e+17 -1.488e+17   151%   328  265s
   766   705 -1.476e+17   20  198 2.8909e+17 -1.488e+17   151%   332  270s
   790   723 -1.443e+17   24  266 2.8909e+17 -1.488e+17   151%   336  275s
   824   744 -1.347e+17   32  274 2.8909e+17 -1.488e+17   151%   333  280s
   879   781 -1.302e+17   47  324 2.8909e+17 -1.488e+17   151%   327  287s
   897   794 -1.291e+17   50  300 2.8909e+17 -1.488e+17   151%   326  291s
   933   817 -1.263e+17   57  352 2.8909e+17 -1.488e+17   151%   321  296s
H  935   782                    2.724051e+17 -1.488e+17   155%   321  296s
   966   803 -1.228e+17   66  325 2.7241e+17 -1.488e+17   155%   317  300s
  1000   826 -1.111e+17   74  418 2.7241e+17 -1.488e+17   155%   315  305s
  1052   847 -1.082e+17   93  346 2.7241e+17 -1.488e+17   155%   306  310s
  1103   862 -8.827e+16  111  418 2.7241e+17 -1.488e+17   155%   302  315s
  1203   903 -1.376e+17   21  251 2.7241e+17 -1.488e+17   155%   292  322s
  1248   929 -1.308e+17   37  262 2.7241e+17 -1.488e+17   155%   288  328s
H 1249   896                    2.472893e+17 -1.488e+17   160%   288  328s
  1294   920 -1.253e+17   57  303 2.4729e+17 -1.488e+17   160%   284  332s

Cutting planes:
  Gomory: 3
  Cover: 7
  MIR: 106
  Flow cover: 67
  Zero half: 170

Explored 1353 nodes (419866 simplex iterations) in 334.76 seconds
Thread count was 4 (of 4 available processors)

Solution count 7: 2.47289e+17 2.72405e+17 2.89091e+17 ... 6.83092e+17

Solve interrupted
Best objective 2.472892514596e+17, best bound -1.488476176944e+17, gap 160.1917%

Gurobi 8.1.0 (mac64, Python) logging started Thu Jan 17 00:54:11 2019

Academic license - for non-commercial use only

Gurobi 8.1.0 (mac64, Python) logging started Fri Jan 18 18:12:13 2019

Academic license - for non-commercial use only
Optimize a model with 111001 rows, 37440 columns and 265608 nonzeros
Model has 18486 quadratic objective terms
Variable types: 36504 continuous, 936 integer (936 binary)
Coefficient statistics:
  Matrix range     [1e+00, 7e+01]
  Objective range  [2e+15, 6e+15]
  QObjective range [1e+14, 1e+15]
  Bounds range     [1e+00, 1e+00]
  RHS range        [1e+00, 6e+00]
Warning: Model contains large objective coefficients
Warning: Model contains large quadratic objective coefficients
         Consider reformulating model or setting NumericFocus parameter
         to avoid numerical issues.
Presolve removed 107095 rows and 34080 columns
Presolve time: 0.22s
Presolved: 21924 rows, 21378 columns, 71862 nonzeros
Variable types: 2424 continuous, 18954 integer (18954 binary)

Root relaxation: objective -1.492442e+17, 10533 iterations, 1.03 seconds

    Nodes    |    Current Node    |     Objective Bounds      |     Work
 Expl Unexpl |  Obj  Depth IntInf | Incumbent    BestBd   Gap | It/Node Time

     0     0 -1.492e+17    0  152          - -1.492e+17      -     -    3s
H    0     0                    6.830923e+17 -1.492e+17   122%     -    3s
     0     0 -1.492e+17    0  322 6.8309e+17 -1.492e+17   122%     -    4s
     0     0 -1.492e+17    0  247 6.8309e+17 -1.492e+17   122%     -    5s
     0     0 -1.492e+17    0  266 6.8309e+17 -1.492e+17   122%     -    7s
     0     0 -1.492e+17    0  256 6.8309e+17 -1.492e+17   122%     -    8s
     0     0 -1.492e+17    0  262 6.8309e+17 -1.492e+17   122%     -   11s
     0     0 -1.492e+17    0  243 6.8309e+17 -1.492e+17   122%     -   12s
     0     0 -1.492e+17    0  276 6.8309e+17 -1.492e+17   122%     -   16s
     0     0 -1.492e+17    0  263 6.8309e+17 -1.492e+17   122%     -   24s
     0     2 -1.492e+17    0  165 6.8309e+17 -1.492e+17   122%     -   40s
     1     4 -1.488e+17    1  166 6.8309e+17 -1.492e+17   122%  9929   45s
    18    19 -1.472e+17    6  186 6.8309e+17 -1.488e+17   122%  1883   50s
    58    61 -1.319e+17   17  227 6.8309e+17 -1.488e+17   122%   784   55s
    76    78 -1.293e+17   23  248 6.8309e+17 -1.488e+17   122%   685   60s
    97    95 -1.354e+17   29  177 6.8309e+17 -1.488e+17   122%   596   66s
   109   109 -1.322e+17   33  177 6.8309e+17 -1.488e+17   122%   570   70s
   136   136 -1.185e+17   40  218 6.8309e+17 -1.488e+17   122%   509   76s
   151   150 -1.193e+17   44  218 6.8309e+17 -1.488e+17   122%   489   81s
   180   179 -1.113e+17   51  220 6.8309e+17 -1.488e+17   122%   445   86s
   201   201 -1.063e+17   55  231 6.8309e+17 -1.488e+17   122%   417   90s
   233   229 -9.740e+16   64  221 6.8309e+17 -1.488e+17   122%   392   96s
   274   272 -8.226e+16   78  195 6.8309e+17 -1.488e+17   122%   351  103s
   285   280 -7.611e+16   81  200 6.8309e+17 -1.488e+17   122%   343  108s
   300   296 -7.294e+16   87  203 6.8309e+17 -1.488e+17   122%   336  113s
   323   315 -6.883e+16   91  227 6.8309e+17 -1.488e+17   122%   321  118s
   332   321 -6.862e+16   92  267 6.8309e+17 -1.488e+17   122%   321  121s
   352   341 -6.132e+16  100  192 6.8309e+17 -1.488e+17   122%   311  126s
H  354   342                    5.498472e+17 -1.488e+17   127%   314  126s
H  399   363                    3.616519e+17 -1.488e+17   141%   295  132s
   425   382 -3.732e+16  122  217 3.6165e+17 -1.488e+17   141%   294  148s
H  438   393                    3.021704e+17 -1.488e+17   149%   289  148s
   439   394 -1.869e+16  129  324 3.0217e+17 -1.488e+17   149%   290  150s
H  492   439                    2.890908e+17 -1.488e+17   151%   283  153s
   493   438 -1.362e+17   18  244 2.8909e+17 -1.488e+17   151%   282  155s
   516   464 -1.228e+17   29  313 2.8909e+17 -1.488e+17   151%   283  178s
   524   468 -1.323e+17   31  283 2.8909e+17 -1.488e+17   151%   282  181s
   568   512 -1.275e+17   46  243 2.8909e+17 -1.488e+17   151%   286  188s
   600   548 -1.232e+17   56  229 2.8909e+17 -1.488e+17   151%   285  191s
   662   608 -1.054e+17   75  269 2.8909e+17 -1.488e+17   151%   282  197s
   709   657 -1.065e+17   88  225 2.8909e+17 -1.488e+17   151%   277  201s
   743   689 -1.362e+17   15 9241 2.8909e+17 -1.488e+17   151%   278  269s
   745   690 -1.409e+17   19  207 2.8909e+17 -1.488e+17   151%   277  270s
   748   692 -1.177e+17   48  296 2.8909e+17 -1.488e+17   151%   276  278s
   749   693 -1.348e+17   21  284 2.8909e+17 -1.488e+17   151%   276  283s
   750   694 -7.939e+16   91  284 2.8909e+17 -1.488e+17   151%   275  286s
   751   697 -1.488e+17   14  209 2.8909e+17 -1.488e+17   151%   317  316s
   753   699 -1.488e+17   15  211 2.8909e+17 -1.488e+17   151%   327  321s
   759   702 -1.487e+17   18  201 2.8909e+17 -1.488e+17   151%   330  325s
   770   708 -1.476e+17   21  191 2.8909e+17 -1.488e+17   151%   333  330s
   790   723 -1.443e+17   24  266 2.8909e+17 -1.488e+17   151%   336  335s
   812   736 -1.354e+17   28  233 2.8909e+17 -1.488e+17   151%   334  340s
   862   768 -1.316e+17   42  260 2.8909e+17 -1.488e+17   151%   328  345s
   879   781 -1.302e+17   47  324 2.8909e+17 -1.488e+17   151%   327  350s
   897   794 -1.291e+17   50  300 2.8909e+17 -1.488e+17   151%   326  355s
   933   817 -1.263e+17   57  352 2.8909e+17 -1.488e+17   151%   321  361s
H  935   782                    2.724051e+17 -1.488e+17   155%   321  361s
   966   803 -1.228e+17   66  325 2.7241e+17 -1.488e+17   155%   317  366s
   992   820 -1.201e+17   72  341 2.7241e+17 -1.488e+17   155%   314  371s
  1007   828 -1.185e+17   75  319 2.7241e+17 -1.488e+17   155%   313  375s
  1052   847 -1.082e+17   93  346 2.7241e+17 -1.488e+17   155%   306  380s
  1082   854 -9.959e+16  104  345 2.7241e+17 -1.488e+17   155%   305  386s
  1103   862 -8.827e+16  111  418 2.7241e+17 -1.488e+17   155%   302  390s
  1171   890 infeasible  129      2.7241e+17 -1.488e+17   155%   293  398s
  1203   903 -1.376e+17   21  251 2.7241e+17 -1.488e+17   155%   292  403s
  1215   916 -1.350e+17   27  264 2.7241e+17 -1.488e+17   155%   291  406s
  1248   929 -1.308e+17   37  262 2.7241e+17 -1.488e+17   155%   288  412s
H 1249   896                    2.472893e+17 -1.488e+17   160%   288  412s
  1250   897 -1.304e+17   38  261 2.4729e+17 -1.488e+17   160%   288  417s
  1294   920 -1.253e+17   57  303 2.4729e+17 -1.488e+17   160%   284  422s
  1301   928 -1.243e+17   63  334 2.4729e+17 -1.488e+17   160%   283  427s
  1354   950 -1.188e+17   82  373 2.4729e+17 -1.488e+17   160%   278  432s
H 1381   933                    2.472892e+17 -1.488e+17   160%   278  436s
  1398   943 -9.968e+16   97  508 2.4729e+17 -1.488e+17   160%   277  441s
  1429   948 -1.024e+17  103  428 2.4729e+17 -1.488e+17   160%   275  448s

Cutting planes:
  Gomory: 3
  Cover: 7
  MIR: 106
  Flow cover: 67
  Zero half: 170

Explored 1477 nodes (447503 simplex iterations) in 448.35 seconds
Thread count was 4 (of 4 available processors)

Solution count 8: 2.47289e+17 2.47289e+17 2.72405e+17 ... 6.83092e+17

Solve interrupted
Best objective 2.472892428026e+17, best bound -1.488476176944e+17, gap 160.1917%
